80 3160
1 2 99
1 3 206
1 4 239
1 5 189
1 6 230
1 7 118
1 8 144
1 9 73
1 10 8
1 11 228
1 12 231
1 13 190
1 14 155
1 15 112
1 16 158
1 17 208
1 18 7
1 19 204
1 20 143
1 21 113
1 22 181
1 23 231
1 24 80
1 25 27
1 26 44
1 27 205
1 28 203
1 29 65
1 30 175
1 31 30
1 32 212
1 33 86
1 34 125
1 35 146
1 36 121
1 37 137
1 38 106
1 39 41
1 40 233
1 41 190
1 42 129
1 43 210
1 44 103
1 45 144
1 46 206
1 47 5
1 48 58
1 49 0
1 50 208
1 51 132
1 52 110
1 53 164
1 54 105
1 55 179
1 56 27
1 57 31
1 58 2
1 59 68
1 60 38
1 61 105
1 62 211
1 63 147
1 64 18
1 65 113
1 66 135
1 67 100
1 68 108
1 69 109
1 70 158
1 71 190
1 72 11
1 73 235
1 74 67
1 75 124
1 76 193
1 77 183
1 78 131
1 79 91
1 80 78
2 3 155
2 4 157
2 5 33
2 6 217
2 7 85
2 8 135
2 9 16
2 10 94
2 11 14
2 12 218
2 13 31
2 14 9
2 15 38
2 16 47
2 17 144
2 18 133
2 19 162
2 20 173
2 21 187
2 22 152
2 23 141
2 24 118
2 25 235
2 26 232
2 27 31
2 28 32
2 29 76
2 30 172
2 31 133
2 32 142
2 33 175
2 34 94
2 35 82
2 36 128
2 37 231
2 38 135
2 39 214
2 40 16
2 41 64
2 42 8
2 43 218
2 44 44
2 45 126
2 46 165
2 47 94
2 48 203
2 49 133
2 50 233
2 51 150
2 52 180
2 53 69
2 54 210
2 55 188
2 56 91
2 57 29
2 58 216
2 59 120
2 60 225
2 61 220
2 62 207
2 63 70
2 64 35
2 65 111
2 66 20
2 67 177
2 68 72
2 69 160
2 70 210
2 71 13
2 72 220
2 73 239
2 74 146
2 75 52
2 76 81
2 77 22
2 78 58
2 79 211
2 80 116
3 4 235
3 5 92
3 6 211
3 7 177
3 8 4
3 9 82
3 10 36
3 11 169
3 12 20
3 13 160
3 14 10
3 15 31
3 16 15
3 17 124
3 18 22
3 19 70
3 20 137
3 21 63
3 22 94
3 23 14
3 24 194
3 25 122
3 26 57
3 27 147
3 28 192
3 29 8
3 30 136
3 31 121
3 32 199
3 33 12
3 34 148
3 35 59
3 36 200
3 37 202
3 38 214
3 39 200
3 40 160
3 41 143
3 42 110
3 43 197
3 44 35
3 45 190
3 46 235
3 47 171
3 48 100
3 49 0
3 50 130
3 51 130
3 52 219
3 53 193
3 54 173
3 55 215
3 56 1
3 57 151
3 58 178
3 59 86
3 60 19
3 61 54
3 62 152
3 63 192
3 64 77
3 65 73
3 66 129
3 67 9
3 68 64
3 69 104
3 70 151
3 71 167
3 72 121
3 73 196
3 74 239
3 75 209
3 76 91
3 77 36
3 78 114
3 79 97
3 80 87
4 5 69
4 6 164
4 7 146
4 8 34
4 9 30
4 10 77
4 11 97
4 12 114
4 13 35
4 14 29
4 15 1
4 16 82
4 17 20
4 18 233
4 19 128
4 20 113
4 21 162
4 22 206
4 23 179
4 24 158
4 25 40
4 26 74
4 27 197
4 28 79
4 29 181
4 30 116
4 31 147
4 32 174
4 33 154
4 34 85
4 35 217
4 36 57
4 37 229
4 38 145
4 39 94
4 40 113
4 41 192
4 42 156
4 43 136
4 44 125
4 45 142
4 46 192
4 47 31
4 48 173
4 49 133
4 50 154
4 51 169
4 52 211
4 53 28
4 54 203
4 55 35
4 56 211
4 57 183
4 58 3
4 59 23
4 60 131
4 61 95
4 62 2
4 63 54
4 64 221
4 65 166
4 66 146
4 67 111
4 68 199
4 69 192
4 70 163
4 71 124
4 72 119
4 73 37
4 74 1
4 75 158
4 76 91
4 77 159
4 78 93
4 79 134
4 80 7
5 6 35
5 7 78
5 8 137
5 9 7
5 10 217
5 11 218
5 12 231
5 13 54
5 14 159
5 15 102
5 16 14
5 17 4
5 18 106
5 19 213
5 20 202
5 21 68
5 22 96
5 23 112
5 24 209
5 25 124
5 26 229
5 27 67
5 28 207
5 29 17
5 30 215
5 31 11
5 32 158
5 33 154
5 34 136
5 35 51
5 36 61
5 37 84
5 38 180
5 39 74
5 40 25
5 41 137
5 42 238
5 43 159
5 44 39
5 45 105
5 46 59
5 47 22
5 48 80
5 49 58
5 50 172
5 51 143
5 52 231
5 53 15
5 54 95
5 55 77
5 56 209
5 57 227
5 58 185
5 59 46
5 60 19
5 61 45
5 62 92
5 63 83
5 64 179
5 65 213
5 66 113
5 67 16
5 68 96
5 69 154
5 70 94
5 71 158
5 72 221
5 73 114
5 74 78
5 75 142
5 76 226
5 77 8
5 78 185
5 79 81
5 80 168
6 7 59
6 8 58
6 9 10
6 10 6
6 11 58
6 12 119
6 13 73
6 14 182
6 15 93
6 16 161
6 17 24
6 18 146
6 19 20
6 20 174
6 21 124
6 22 89
6 23 133
6 24 76
6 25 173
6 26 79
6 27 152
6 28 38
6 29 12
6 30 129
6 31 5
6 32 17
6 33 11
6 34 88
6 35 120
6 36 237
6 37 184
6 38 211
6 39 26
6 40 115
6 41 42
6 42 57
6 43 215
6 44 48
6 45 235
6 46 8
6 47 10
6 48 39
6 49 3
6 50 172
6 51 68
6 52 94
6 53 55
6 54 222
6 55 159
6 56 154
6 57 96
6 58 13
6 59 204
6 60 237
6 61 182
6 62 83
6 63 138
6 64 161
6 65 229
6 66 97
6 67 192
6 68 108
6 69 164
6 70 60
6 71 0
6 72 72
6 73 24
6 74 154
6 75 5
6 76 157
6 77 191
6 78 18
6 79 55
6 80 204
7 8 237
7 9 6
7 10 173
7 11 213
7 12 174
7 13 58
7 14 62
7 15 130
7 16 150
7 17 125
7 18 223
7 19 76
7 20 183
7 21 166
7 22 239
7 23 133
7 24 177
7 25 58
7 26 109
7 27 15
7 28 214
7 29 48
7 30 146
7 31 59
7 32 117
7 33 95
7 34 231
7 35 101
7 36 181
7 37 110
7 38 18
7 39 36
7 40 164
7 41 67
7 42 9
7 43 122
7 44 175
7 45 128
7 46 200
7 47 234
7 48 81
7 49 64
7 50 153
7 51 188
7 52 164
7 53 206
7 54 133
7 55 141
7 56 115
7 57 201
7 58 105
7 59 197
7 60 77
7 61 161
7 62 64
7 63 131
7 64 94
7 65 238
7 66 173
7 67 70
7 68 127
7 69 237
7 70 186
7 71 180
7 72 227
7 73 67
7 74 231
7 75 115
7 76 139
7 77 65
7 78 21
7 79 136
7 80 31
8 9 47
8 10 205
8 11 206
8 12 125
8 13 82
8 14 108
8 15 194
8 16 226
8 17 98
8 18 212
8 19 20
8 20 237
8 21 59
8 22 185
8 23 33
8 24 181
8 25 96
8 26 1
8 27 198
8 28 218
8 29 78
8 30 145
8 31 154
8 32 160
8 33 159
8 34 89
8 35 49
8 36 197
8 37 230
8 38 41
8 39 76
8 40 207
8 41 112
8 42 38
8 43 207
8 44 81
8 45 166
8 46 43
8 47 228
8 48 109
8 49 156
8 50 127
8 51 145
8 52 16
8 53 102
8 54 117
8 55 201
8 56 114
8 57 54
8 58 102
8 59 173
8 60 237
8 61 162
8 62 90
8 63 195
8 64 69
8 65 70
8 66 218
8 67 126
8 68 119
8 69 146
8 70 203
8 71 222
8 72 29
8 73 115
8 74 234
8 75 33
8 76 94
8 77 221
8 78 157
8 79 47
8 80 183
9 10 149
9 11 70
9 12 16
9 13 15
9 14 83
9 15 91
9 16 70
9 17 71
9 18 41
9 19 141
9 20 61
9 21 106
9 22 0
9 23 46
9 24 110
9 25 101
9 26 65
9 27 125
9 28 214
9 29 80
9 30 48
9 31 3
9 32 205
9 33 188
9 34 16
9 35 139
9 36 1
9 37 97
9 38 57
9 39 137
9 40 178
9 41 16
9 42 116
9 43 189
9 44 65
9 45 115
9 46 30
9 47 69
9 48 182
9 49 174
9 50 85
9 51 10
9 52 186
9 53 225
9 54 124
9 55 210
9 56 170
9 57 38
9 58 34
9 59 106
9 60 18
9 61 101
9 62 43
9 63 127
9 64 56
9 65 204
9 66 135
9 67 47
9 68 62
9 69 93
9 70 179
9 71 239
9 72 24
9 73 36
9 74 124
9 75 15
9 76 192
9 77 49
9 78 128
9 79 111
9 80 6
10 11 26
10 12 4
10 13 81
10 14 12
10 15 113
10 16 223
10 17 63
10 18 103
10 19 100
10 20 98
10 21 61
10 22 222
10 23 219
10 24 75
10 25 190
10 26 51
10 27 2
10 28 224
10 29 19
10 30 239
10 31 135
10 32 76
10 33 194
10 34 184
10 35 128
10 36 57
10 37 107
10 38 159
10 39 115
10 40 86
10 41 74
10 42 165
10 43 64
10 44 179
10 45 140
10 46 187
10 47 153
10 48 167
10 49 161
10 50 126
10 51 152
10 52 127
10 53 135
10 54 68
10 55 209
10 56 197
10 57 69
10 58 239
10 59 209
10 60 20
10 61 107
10 62 214
10 63 1
10 64 202
10 65 198
10 66 48
10 67 55
10 68 51
10 69 111
10 70 229
10 71 115
10 72 225
10 73 39
10 74 128
10 75 158
10 76 170
10 77 215
10 78 199
10 79 4
10 80 62
11 12 153
11 13 17
11 14 50
11 15 191
11 16 122
11 17 17
11 18 235
11 19 73
11 20 1
11 21 22
11 22 161
11 23 155
11 24 232
11 25 116
11 26 82
11 27 29
11 28 105
11 29 130
11 30 62
11 31 183
11 32 127
11 33 138
11 34 90
11 35 53
11 36 216
11 37 54
11 38 137
11 39 75
11 40 238
11 41 177
11 42 16
11 43 194
11 44 201
11 45 238
11 46 157
11 47 111
11 48 188
11 49 129
11 50 77
11 51 149
11 52 25
11 53 188
11 54 26
11 55 142
11 56 68
11 57 127
11 58 31
11 59 144
11 60 50
11 61 70
11 62 220
11 63 16
11 64 67
11 65 50
11 66 76
11 67 53
11 68 61
11 69 70
11 70 49
11 71 197
11 72 20
11 73 6
11 74 21
11 75 166
11 76 94
11 77 141
11 78 112
11 79 92
11 80 15
12 13 111
12 14 124
12 15 113
12 16 63
12 17 101
12 18 46
12 19 147
12 20 99
12 21 146
12 22 189
12 23 150
12 24 174
12 25 188
12 26 121
12 27 214
12 28 105
12 29 143
12 30 161
12 31 221
12 32 206
12 33 210
12 34 146
12 35 140
12 36 40
12 37 62
12 38 164
12 39 7
12 40 88
12 41 186
12 42 206
12 43 58
12 44 35
12 45 10
12 46 111
12 47 188
12 48 158
12 49 216
12 50 156
12 51 107
12 52 204
12 53 226
12 54 221
12 55 89
12 56 170
12 57 120
12 58 224
12 59 170
12 60 91
12 61 45
12 62 48
12 63 163
12 64 153
12 65 20
12 66 222
12 67 166
12 68 201
12 69 107
12 70 184
12 71 204
12 72 5
12 73 64
12 74 97
12 75 137
12 76 180
12 77 174
12 78 143
12 79 125
12 80 210
13 14 16
13 15 131
13 16 149
13 17 195
13 18 66
13 19 92
13 20 211
13 21 164
13 22 124
13 23 132
13 24 33
13 25 108
13 26 182
13 27 155
13 28 175
13 29 8
13 30 96
13 31 26
13 32 217
13 33 74
13 34 16
13 35 234
13 36 22
13 37 196
13 38 67
13 39 36
13 40 213
13 41 16
13 42 129
13 43 224
13 44 91
13 45 41
13 46 200
13 47 95
13 48 73
13 49 159
13 50 214
13 51 3
13 52 104
13 53 52
13 54 119
13 55 229
13 56 134
13 57 190
13 58 29
13 59 158
13 60 218
13 61 118
13 62 157
13 63 123
13 64 118
13 65 229
13 66 42
13 67 110
13 68 179
13 69 80
13 70 109
13 71 54
13 72 135
13 73 204
13 74 174
13 75 6
13 76 99
13 77 73
13 78 119
13 79 200
13 80 40
14 15 86
14 16 237
14 17 225
14 18 232
14 19 7
14 20 153
14 21 164
14 22 32
14 23 172
14 24 36
14 25 45
14 26 214
14 27 8
14 28 108
14 29 16
14 30 139
14 31 87
14 32 107
14 33 182
14 34 197
14 35 235
14 36 192
14 37 190
14 38 147
14 39 172
14 40 18
14 41 178
14 42 58
14 43 163
14 44 109
14 45 127
14 46 115
14 47 142
14 48 18
14 49 15
14 50 157
14 51 191
14 52 94
14 53 14
14 54 122
14 55 191
14 56 96
14 57 155
14 58 108
14 59 141
14 60 155
14 61 36
14 62 123
14 63 134
14 64 0
14 65 155
14 66 216
14 67 84
14 68 67
14 69 151
14 70 213
14 71 145
14 72 37
14 73 238
14 74 231
14 75 206
14 76 228
14 77 181
14 78 128
14 79 43
14 80 56
15 16 155
15 17 153
15 18 162
15 19 71
15 20 200
15 21 196
15 22 199
15 23 170
15 24 135
15 25 191
15 26 4
15 27 102
15 28 186
15 29 191
15 30 40
15 31 165
15 32 147
15 33 169
15 34 25
15 35 146
15 36 93
15 37 19
15 38 231
15 39 120
15 40 127
15 41 117
15 42 119
15 43 42
15 44 29
15 45 18
15 46 100
15 47 0
15 48 40
15 49 227
15 50 76
15 51 25
15 52 237
15 53 145
15 54 31
15 55 53
15 56 163
15 57 199
15 58 138
15 59 135
15 60 109
15 61 80
15 62 43
15 63 123
15 64 129
15 65 226
15 66 84
15 67 6
15 68 16
15 69 172
15 70 39
15 71 105
15 72 67
15 73 41
15 74 47
15 75 229
15 76 57
15 77 36
15 78 30
15 79 93
15 80 126
16 17 186
16 18 78
16 19 37
16 20 104
16 21 234
16 22 66
16 23 195
16 24 220
16 25 48
16 26 195
16 27 48
16 28 230
16 29 190
16 30 69
16 31 100
16 32 5
16 33 108
16 34 151
16 35 104
16 36 48
16 37 46
16 38 179
16 39 219
16 40 115
16 41 182
16 42 234
16 43 24
16 44 180
16 45 219
16 46 158
16 47 178
16 48 37
16 49 109
16 50 97
16 51 41
16 52 230
16 53 53
16 54 160
16 55 170
16 56 16
16 57 102
16 58 53
16 59 6
16 60 90
16 61 77
16 62 154
16 63 135
16 64 58
16 65 18
16 66 59
16 67 222
16 68 4
16 69 76
16 70 24
16 71 113
16 72 24
16 73 212
16 74 164
16 75 212
16 76 183
16 77 48
16 78 163
16 79 229
16 80 67
17 18 189
17 19 126
17 20 75
17 21 193
17 22 76
17 23 178
17 24 133
17 25 18
17 26 159
17 27 45
17 28 228
17 29 209
17 30 222
17 31 25
17 32 31
17 33 29
17 34 41
17 35 101
17 36 174
17 37 160
17 38 193
17 39 233
17 40 134
17 41 197
17 42 135
17 43 125
17 44 31
17 45 73
17 46 198
17 47 145
17 48 115
17 49 140
17 50 203
17 51 62
17 52 14
17 53 159
17 54 213
17 55 136
17 56 98
17 57 8
17 58 167
17 59 239
17 60 174
17 61 10
17 62 135
17 63 94
17 64 28
17 65 120
17 66 203
17 67 99
17 68 138
17 69 84
17 70 53
17 71 134
17 72 58
17 73 192
17 74 63
17 75 31
17 76 122
17 77 7
17 78 109
17 79 48
17 80 173
18 19 204
18 20 200
18 21 215
18 22 178
18 23 0
18 24 234
18 25 225
18 26 108
18 27 82
18 28 168
18 29 79
18 30 144
18 31 120
18 32 12
18 33 111
18 34 61
18 35 173
18 36 90
18 37 23
18 38 179
18 39 148
18 40 194
18 41 8
18 42 85
18 43 198
18 44 112
18 45 152
18 46 136
18 47 113
18 48 13
18 49 193
18 50 16
18 51 84
18 52 138
18 53 221
18 54 202
18 55 157
18 56 206
18 57 13
18 58 237
18 59 30
18 60 100
18 61 52
18 62 218
18 63 63
18 64 143
18 65 67
18 66 150
18 67 89
18 68 42
18 69 137
18 70 95
18 71 186
18 72 105
18 73 24
18 74 230
18 75 90
18 76 112
18 77 17
18 78 41
18 79 76
18 80 109
19 20 8
19 21 20
19 22 145
19 23 232
19 24 212
19 25 178
19 26 165
19 27 4
19 28 146
19 29 122
19 30 158
19 31 224
19 32 22
19 33 229
19 34 43
19 35 88
19 36 196
19 37 239
19 38 155
19 39 86
19 40 153
19 41 197
19 42 131
19 43 136
19 44 224
19 45 174
19 46 55
19 47 51
19 48 126
19 49 172
19 50 138
19 51 239
19 52 199
19 53 173
19 54 150
19 55 91
19 56 158
19 57 184
19 58 46
19 59 45
19 60 33
19 61 91
19 62 42
19 63 38
19 64 235
19 65 94
19 66 153
19 67 162
19 68 38
19 69 132
19 70 121
19 71 238
19 72 216
19 73 188
19 74 223
19 75 225
19 76 97
19 77 52
19 78 44
19 79 71
19 80 175
20 21 6
20 22 57
20 23 215
20 24 234
20 25 18
20 26 99
20 27 13
20 28 148
20 29 158
20 30 232
20 31 113
20 32 12
20 33 33
20 34 60
20 35 224
20 36 206
20 37 75
20 38 60
20 39 19
20 40 120
20 41 201
20 42 17
20 43 69
20 44 20
20 45 150
20 46 132
20 47 49
20 48 218
20 49 198
20 50 65
20 51 93
20 52 109
20 53 111
20 54 193
20 55 113
20 56 193
20 57 88
20 58 82
20 59 145
20 60 70
20 61 224
20 62 187
20 63 80
20 64 112
20 65 217
20 66 74
20 67 228
20 68 89
20 69 143
20 70 168
20 71 161
20 72 234
20 73 64
20 74 172
20 75 96
20 76 97
20 77 187
20 78 223
20 79 33
20 80 162
21 22 31
21 23 233
21 24 161
21 25 83
21 26 96
21 27 95
21 28 152
21 29 127
21 30 223
21 31 193
21 32 14
21 33 132
21 34 163
21 35 167
21 36 16
21 37 214
21 38 113
21 39 176
21 40 170
21 41 131
21 42 193
21 43 160
21 44 78
21 45 208
21 46 131
21 47 193
21 48 151
21 49 233
21 50 116
21 51 194
21 52 234
21 53 71
21 54 48
21 55 13
21 56 39
21 57 56
21 58 7
21 59 158
21 60 194
21 61 193
21 62 197
21 63 29
21 64 223
21 65 126
21 66 98
21 67 17
21 68 207
21 69 31
21 70 68
21 71 24
21 72 77
21 73 210
21 74 73
21 75 82
21 76 56
21 77 59
21 78 60
21 79 56
21 80 22
22 23 54
22 24 47
22 25 35
22 26 42
22 27 193
22 28 181
22 29 93
22 30 8
22 31 41
22 32 238
22 33 37
22 34 197
22 35 93
22 36 136
22 37 133
22 38 72
22 39 163
22 40 224
22 41 109
22 42 213
22 43 189
22 44 230
22 45 206
22 46 199
22 47 153
22 48 147
22 49 238
22 50 215
22 51 235
22 52 167
22 53 217
22 54 81
22 55 81
22 56 153
22 57 42
22 58 132
22 59 228
22 60 122
22 61 165
22 62 2
22 63 236
22 64 184
22 65 149
22 66 119
22 67 113
22 68 38
22 69 128
22 70 151
22 71 42
22 72 53
22 73 113
22 74 28
22 75 18
22 76 210
22 77 213
22 78 218
22 79 144
22 80 121
23 24 178
23 25 231
23 26 59
23 27 10
23 28 129
23 29 79
23 30 56
23 31 198
23 32 85
23 33 231
23 34 1
23 35 37
23 36 55
23 37 225
23 38 134
23 39 219
23 40 47
23 41 200
23 42 179
23 43 229
23 44 179
23 45 35
23 46 54
23 47 65
23 48 145
23 49 123
23 50 80
23 51 10
23 52 192
23 53 128
23 54 160
23 55 93
23 56 129
23 57 1
23 58 228
23 59 42
23 60 21
23 61 164
23 62 69
23 63 122
23 64 195
23 65 65
23 66 100
23 67 60
23 68 178
23 69 80
23 70 85
23 71 161
23 72 67
23 73 115
23 74 135
23 75 220
23 76 112
23 77 200
23 78 38
23 79 198
23 80 221
24 25 71
24 26 81
24 27 205
24 28 99
24 29 144
24 30 181
24 31 177
24 32 102
24 33 83
24 34 97
24 35 123
24 36 135
24 37 162
24 38 78
24 39 165
24 40 32
24 41 157
24 42 228
24 43 71
24 44 50
24 45 229
24 46 207
24 47 14
24 48 84
24 49 206
24 50 102
24 51 153
24 52 42
24 53 165
24 54 159
24 55 120
24 56 222
24 57 215
24 58 101
24 59 67
24 60 58
24 61 182
24 62 58
24 63 183
24 64 123
24 65 179
24 66 212
24 67 104
24 68 102
24 69 38
24 70 11
24 71 20
24 72 75
24 73 218
24 74 106
24 75 112
24 76 101
24 77 149
24 78 239
24 79 140
24 80 25
25 26 144
25 27 206
25 28 140
25 29 202
25 30 196
25 31 200
25 32 178
25 33 113
25 34 226
25 35 28
25 36 134
25 37 120
25 38 35
25 39 163
25 40 191
25 41 42
25 42 31
25 43 19
25 44 144
25 45 92
25 46 174
25 47 225
25 48 201
25 49 180
25 50 25
25 51 174
25 52 20
25 53 195
25 54 110
25 55 218
25 56 8
25 57 83
25 58 225
25 59 126
25 60 3
25 61 116
25 62 57
25 63 67
25 64 202
25 65 22
25 66 198
25 67 17
25 68 161
25 69 95
25 70 122
25 71 156
25 72 133
25 73 41
25 74 171
25 75 227
25 76 33
25 77 5
25 78 43
25 79 27
25 80 30
26 27 11
26 28 121
26 29 221
26 30 49
26 31 64
26 32 204
26 33 85
26 34 14
26 35 221
26 36 153
26 37 49
26 38 7
26 39 23
26 40 81
26 41 146
26 42 57
26 43 102
26 44 136
26 45 159
26 46 46
26 47 48
26 48 129
26 49 57
26 50 16
26 51 119
26 52 22
26 53 231
26 54 63
26 55 148
26 56 101
26 57 64
26 58 158
26 59 66
26 60 45
26 61 3
26 62 15
26 63 111
26 64 187
26 65 204
26 66 62
26 67 77
26 68 14
26 69 41
26 70 65
26 71 140
26 72 136
26 73 104
26 74 228
26 75 150
26 76 40
26 77 2
26 78 5
26 79 67
26 80 134
27 28 110
27 29 37
27 30 207
27 31 20
27 32 46
27 33 227
27 34 65
27 35 47
27 36 38
27 37 98
27 38 84
27 39 136
27 40 14
27 41 169
27 42 156
27 43 101
27 44 60
27 45 173
27 46 146
27 47 142
27 48 178
27 49 52
27 50 127
27 51 6
27 52 6
27 53 3
27 54 124
27 55 118
27 56 146
27 57 167
27 58 87
27 59 123
27 60 147
27 61 55
27 62 79
27 63 49
27 64 181
27 65 142
27 66 105
27 67 81
27 68 198
27 69 180
27 70 190
27 71 148
27 72 115
27 73 115
27 74 9
27 75 220
27 76 8
27 77 128
27 78 84
27 79 61
27 80 138
28 29 237
28 30 100
28 31 197
28 32 128
28 33 60
28 34 172
28 35 39
28 36 203
28 37 10
28 38 10
28 39 152
28 40 12
28 41 21
28 42 189
28 43 158
28 44 151
28 45 75
28 46 15
28 47 181
28 48 135
28 49 105
28 50 35
28 51 191
28 52 125
28 53 40
28 54 54
28 55 35
28 56 157
28 57 119
28 58 107
28 59 53
28 60 59
28 61 103
28 62 49
28 63 175
28 64 75
28 65 17
28 66 112
28 67 30
28 68 20
28 69 60
28 70 37
28 71 190
28 72 7
28 73 77
28 74 6
28 75 11
28 76 133
28 77 79
28 78 109
28 79 65
28 80 71
29 30 127
29 31 165
29 32 217
29 33 155
29 34 204
29 35 159
29 36 32
29 37 132
29 38 56
29 39 27
29 40 94
29 41 109
29 42 75
29 43 220
29 44 234
29 45 129
29 46 183
29 47 43
29 48 116
29 49 35
29 50 190
29 51 97
29 52 58
29 53 134
29 54 74
29 55 135
29 56 199
29 57 132
29 58 151
29 59 238
29 60 170
29 61 73
29 62 21
29 63 92
29 64 77
29 65 150
29 66 188
29 67 131
29 68 219
29 69 209
29 70 230
29 71 54
29 72 120
29 73 88
29 74 146
29 75 84
29 76 121
29 77 55
29 78 151
29 79 229
29 80 182
30 31 161
30 32 2
30 33 24
30 34 18
30 35 169
30 36 111
30 37 207
30 38 23
30 39 147
30 40 16
30 41 203
30 42 200
30 43 21
30 44 73
30 45 4
30 46 96
30 47 139
30 48 198
30 49 154
30 50 134
30 51 117
30 52 145
30 53 200
30 54 124
30 55 170
30 56 187
30 57 221
30 58 57
30 59 193
30 60 233
30 61 155
30 62 55
30 63 11
30 64 173
30 65 142
30 66 163
30 67 67
30 68 116
30 69 220
30 70 163
30 71 131
30 72 201
30 73 37
30 74 23
30 75 224
30 76 203
30 77 231
30 78 223
30 79 223
30 80 83
31 32 130
31 33 168
31 34 130
31 35 174
31 36 25
31 37 66
31 38 84
31 39 127
31 40 202
31 41 14
31 42 162
31 43 34
31 44 34
31 45 194
31 46 216
31 47 142
31 48 196
31 49 81
31 50 23
31 51 174
31 52 193
31 53 160
31 54 104
31 55 24
31 56 23
31 57 149
31 58 173
31 59 59
31 60 146
31 61 93
31 62 193
31 63 133
31 64 203
31 65 151
31 66 68
31 67 105
31 68 40
31 69 147
31 70 136
31 71 54
31 72 18
31 73 94
31 74 141
31 75 14
31 76 148
31 77 39
31 78 74
31 79 66
31 80 203
32 33 198
32 34 147
32 35 2
32 36 69
32 37 46
32 38 28
32 39 130
32 40 80
32 41 130
32 42 195
32 43 24
32 44 38
32 45 159
32 46 193
32 47 34
32 48 79
32 49 132
32 50 239
32 51 174
32 52 22
32 53 15
32 54 197
32 55 229
32 56 205
32 57 203
32 58 209
32 59 206
32 60 38
32 61 190
32 62 44
32 63 88
32 64 170
32 65 14
32 66 162
32 67 26
32 68 223
32 69 56
32 70 174
32 71 235
32 72 97
32 73 172
32 74 59
32 75 123
32 76 10
32 77 5
32 78 85
32 79 31
32 80 71
33 34 130
33 35 132
33 36 77
33 37 148
33 38 111
33 39 202
33 40 144
33 41 225
33 42 11
33 43 223
33 44 116
33 45 145
33 46 222
33 47 104
33 48 214
33 49 58
33 50 9
33 51 239
33 52 35
33 53 171
33 54 184
33 55 36
33 56 155
33 57 72
33 58 168
33 59 42
33 60 19
33 61 143
33 62 239
33 63 124
33 64 122
33 65 78
33 66 124
33 67 108
33 68 74
33 69 162
33 70 128
33 71 45
33 72 62
33 73 157
33 74 189
33 75 106
33 76 185
33 77 232
33 78 198
33 79 18
33 80 27
34 35 104
34 36 207
34 37 99
34 38 187
34 39 78
34 40 171
34 41 193
34 42 218
34 43 107
34 44 14
34 45 235
34 46 25
34 47 205
34 48 224
34 49 197
34 50 30
34 51 211
34 52 101
34 53 179
34 54 190
34 55 165
34 56 123
34 57 59
34 58 137
34 59 105
34 60 147
34 61 96
34 62 180
34 63 150
34 64 79
34 65 65
34 66 28
34 67 170
34 68 47
34 69 20
34 70 76
34 71 122
34 72 215
34 73 34
34 74 123
34 75 172
34 76 140
34 77 238
34 78 55
34 79 193
34 80 200
35 36 127
35 37 148
35 38 85
35 39 138
35 40 154
35 41 229
35 42 145
35 43 2
35 44 26
35 45 191
35 46 66
35 47 167
35 48 5
35 49 76
35 50 232
35 51 34
35 52 80
35 53 16
35 54 64
35 55 20
35 56 211
35 57 233
35 58 201
35 59 213
35 60 2
35 61 131
35 62 116
35 63 128
35 64 112
35 65 87
35 66 22
35 67 83
35 68 122
35 69 81
35 70 47
35 71 180
35 72 151
35 73 34
35 74 57
35 75 14
35 76 210
35 77 84
35 78 94
35 79 144
35 80 134
36 37 17
36 38 8
36 39 97
36 40 146
36 41 92
36 42 67
36 43 79
36 44 206
36 45 124
36 46 98
36 47 124
36 48 58
36 49 68
36 50 67
36 51 161
36 52 83
36 53 185
36 54 64
36 55 85
36 56 97
36 57 9
36 58 163
36 59 110
36 60 48
36 61 1
36 62 209
36 63 166
36 64 13
36 65 182
36 66 112
36 67 7
36 68 7
36 69 169
36 70 37
36 71 116
36 72 133
36 73 51
36 74 53
36 75 39
36 76 212
36 77 88
36 78 24
36 79 94
36 80 57
37 38 163
37 39 148
37 40 93
37 41 155
37 42 203
37 43 225
37 44 229
37 45 61
37 46 19
37 47 64
37 48 50
37 49 209
37 50 136
37 51 3
37 52 205
37 53 147
37 54 36
37 55 3
37 56 32
37 57 80
37 58 53
37 59 85
37 60 16
37 61 153
37 62 145
37 63 76
37 64 0
37 65 195
37 66 175
37 67 131
37 68 87
37 69 69
37 70 17
37 71 136
37 72 235
37 73 106
37 74 131
37 75 55
37 76 212
37 77 76
37 78 223
37 79 44
37 80 206
38 39 46
38 40 80
38 41 193
38 42 108
38 43 70
38 44 202
38 45 137
38 46 113
38 47 109
38 48 167
38 49 180
38 50 28
38 51 43
38 52 119
38 53 36
38 54 234
38 55 150
38 56 153
38 57 150
38 58 45
38 59 118
38 60 37
38 61 113
38 62 50
38 63 216
38 64 13
38 65 162
38 66 165
38 67 232
38 68 170
38 69 108
38 70 122
38 71 68
38 72 234
38 73 13
38 74 216
38 75 231
38 76 232
38 77 30
38 78 118
38 79 214
38 80 7
39 40 142
39 41 174
39 42 102
39 43 234
39 44 54
39 45 44
39 46 52
39 47 130
39 48 226
39 49 143
39 50 84
39 51 78
39 52 236
39 53 89
39 54 165
39 55 188
39 56 11
39 57 22
39 58 4
39 59 18
39 60 234
39 61 143
39 62 147
39 63 125
39 64 122
39 65 121
39 66 182
39 67 35
39 68 132
39 69 238
39 70 73
39 71 74
39 72 227
39 73 104
39 74 186
39 75 195
39 76 164
39 77 129
39 78 174
39 79 21
39 80 45
40 41 225
40 42 55
40 43 230
40 44 222
40 45 119
40 46 207
40 47 62
40 48 95
40 49 110
40 50 224
40 51 201
40 52 78
40 53 32
40 54 34
40 55 26
40 56 71
40 57 214
40 58 64
40 59 197
40 60 59
40 61 61
40 62 58
40 63 66
40 64 114
40 65 56
40 66 109
40 67 61
40 68 128
40 69 28
40 70 16
40 71 239
40 72 10
40 73 161
40 74 114
40 75 208
40 76 113
40 77 142
40 78 60
40 79 40
40 80 11
41 42 173
41 43 152
41 44 102
41 45 40
41 46 210
41 47 227
41 48 19
41 49 187
41 50 28
41 51 227
41 52 116
41 53 193
41 54 87
41 55 98
41 56 202
41 57 165
41 58 135
41 59 100
41 60 136
41 61 60
41 62 133
41 63 78
41 64 164
41 65 69
41 66 105
41 67 203
41 68 50
41 69 69
41 70 169
41 71 39
41 72 146
41 73 180
41 74 142
41 75 62
41 76 181
41 77 162
41 78 205
41 79 222
41 80 118
42 43 105
42 44 31
42 45 42
42 46 107
42 47 175
42 48 113
42 49 63
42 50 189
42 51 91
42 52 96
42 53 43
42 54 184
42 55 39
42 56 91
42 57 3
42 58 187
42 59 0
42 60 159
42 61 197
42 62 57
42 63 122
42 64 76
42 65 106
42 66 136
42 67 62
42 68 123
42 69 200
42 70 55
42 71 172
42 72 102
42 73 60
42 74 128
42 75 3
42 76 40
42 77 42
42 78 212
42 79 137
42 80 204
43 44 42
43 45 24
43 46 98
43 47 213
43 48 71
43 49 24
43 50 166
43 51 195
43 52 76
43 53 149
43 54 12
43 55 196
43 56 157
43 57 35
43 58 50
43 59 15
43 60 166
43 61 143
43 62 3
43 63 117
43 64 191
43 65 46
43 66 208
43 67 175
43 68 15
43 69 157
43 70 67
43 71 154
43 72 233
43 73 209
43 74 36
43 75 24
43 76 162
43 77 198
43 78 192
43 79 75
43 80 174
44 45 200
44 46 42
44 47 15
44 48 213
44 49 159
44 50 148
44 51 73
44 52 111
44 53 3
44 54 72
44 55 224
44 56 130
44 57 30
44 58 222
44 59 138
44 60 91
44 61 209
44 62 198
44 63 119
44 64 222
44 65 7
44 66 223
44 67 91
44 68 237
44 69 59
44 70 156
44 71 20
44 72 56
44 73 178
44 74 131
44 75 62
44 76 211
44 77 181
44 78 32
44 79 50
44 80 227
45 46 170
45 47 26
45 48 229
45 49 105
45 50 80
45 51 96
45 52 180
45 53 171
45 54 104
45 55 199
45 56 15
45 57 115
45 58 199
45 59 189
45 60 39
45 61 184
45 62 70
45 63 212
45 64 50
45 65 115
45 66 100
45 67 8
45 68 171
45 69 76
45 70 1
45 71 172
45 72 163
45 73 84
45 74 213
45 75 217
45 76 58
45 77 98
45 78 224
45 79 184
45 80 189
46 47 112
46 48 120
46 49 114
46 50 208
46 51 130
46 52 48
46 53 193
46 54 144
46 55 92
46 56 159
46 57 16
46 58 90
46 59 193
46 60 147
46 61 61
46 62 15
46 63 22
46 64 12
46 65 61
46 66 239
46 67 226
46 68 22
46 69 79
46 70 226
46 71 51
46 72 236
46 73 96
46 74 52
46 75 212
46 76 220
46 77 53
46 78 31
46 79 171
46 80 28
47 48 147
47 49 0
47 50 145
47 51 123
47 52 156
47 53 36
47 54 53
47 55 171
47 56 30
47 57 35
47 58 63
47 59 154
47 60 46
47 61 75
47 62 191
47 63 89
47 64 167
47 65 48
47 66 63
47 67 236
47 68 203
47 69 161
47 70 112
47 71 50
47 72 213
47 73 27
47 74 123
47 75 33
47 76 209
47 77 105
47 78 39
47 79 74
47 80 160
48 49 214
48 50 47
48 51 114
48 52 107
48 53 134
48 54 192
48 55 16
48 56 134
48 57 155
48 58 34
48 59 175
48 60 186
48 61 129
48 62 18
48 63 53
48 64 1
48 65 85
48 66 229
48 67 189
48 68 80
48 69 117
48 70 145
48 71 53
48 72 73
48 73 72
48 74 102
48 75 66
48 76 132
48 77 74
48 78 206
48 79 46
48 80 32
49 50 44
49 51 166
49 52 90
49 53 70
49 54 163
49 55 169
49 56 220
49 57 89
49 58 191
49 59 1
49 60 83
49 61 45
49 62 43
49 63 20
49 64 13
49 65 4
49 66 103
49 67 30
49 68 201
49 69 195
49 70 111
49 71 53
49 72 199
49 73 11
49 74 218
49 75 180
49 76 57
49 77 27
49 78 37
49 79 134
49 80 100
50 51 204
50 52 50
50 53 194
50 54 126
50 55 189
50 56 159
50 57 73
50 58 171
50 59 211
50 60 145
50 61 228
50 62 64
50 63 3
50 64 142
50 65 20
50 66 99
50 67 209
50 68 183
50 69 131
50 70 29
50 71 20
50 72 170
50 73 229
50 74 9
50 75 192
50 76 200
50 77 100
50 78 1
50 79 108
50 80 213
51 52 90
51 53 210
51 54 64
51 55 61
51 56 192
51 57 88
51 58 97
51 59 123
51 60 184
51 61 150
51 62 30
51 63 199
51 64 162
51 65 188
51 66 157
51 67 235
51 68 203
51 69 107
51 70 162
51 71 44
51 72 239
51 73 109
51 74 175
51 75 13
51 76 23
51 77 16
51 78 165
51 79 117
51 80 141
52 53 213
52 54 180
52 55 94
52 56 25
52 57 162
52 58 90
52 59 66
52 60 18
52 61 43
52 62 63
52 63 136
52 64 222
52 65 235
52 66 131
52 67 1
52 68 57
52 69 44
52 70 236
52 71 160
52 72 175
52 73 107
52 74 45
52 75 69
52 76 170
52 77 123
52 78 70
52 79 83
52 80 172
53 54 20
53 55 81
53 56 234
53 57 52
53 58 35
53 59 50
53 60 3
53 61 28
53 62 41
53 63 30
53 64 118
53 65 47
53 66 25
53 67 184
53 68 237
53 69 175
53 70 230
53 71 127
53 72 96
53 73 55
53 74 153
53 75 165
53 76 161
53 77 120
53 78 182
53 79 236
53 80 146
54 55 90
54 56 50
54 57 116
54 58 203
54 59 124
54 60 39
54 61 88
54 62 56
54 63 229
54 64 56
54 65 78
54 66 172
54 67 5
54 68 226
54 69 119
54 70 107
54 71 71
54 72 219
54 73 12
54 74 80
54 75 121
54 76 125
54 77 70
54 78 120
54 79 195
54 80 120
55 56 57
55 57 223
55 58 177
55 59 81
55 60 63
55 61 195
55 62 222
55 63 26
55 64 39
55 65 214
55 66 200
55 67 144
55 68 106
55 69 166
55 70 84
55 71 88
55 72 140
55 73 102
55 74 136
55 75 121
55 76 116
55 77 155
55 78 193
55 79 99
55 80 154
56 57 47
56 58 193
56 59 100
56 60 217
56 61 235
56 62 129
56 63 85
56 64 206
56 65 154
56 66 92
56 67 170
56 68 162
56 69 5
56 70 48
56 71 209
56 72 197
56 73 75
56 74 115
56 75 88
56 76 85
56 77 220
56 78 138
56 79 7
56 80 87
57 58 22
57 59 165
57 60 155
57 61 47
57 62 121
57 63 40
57 64 132
57 65 63
57 66 73
57 67 108
57 68 193
57 69 20
57 70 45
57 71 212
57 72 215
57 73 99
57 74 199
57 75 219
57 76 227
57 77 169
57 78 29
57 79 164
57 80 82
58 59 117
58 60 118
58 61 118
58 62 6
58 63 91
58 64 125
58 65 56
58 66 158
58 67 128
58 68 114
58 69 216
58 70 70
58 71 57
58 72 199
58 73 34
58 74 74
58 75 23
58 76 162
58 77 70
58 78 205
58 79 236
58 80 156
59 60 179
59 61 94
59 62 223
59 63 221
59 64 85
59 65 8
59 66 148
59 67 193
59 68 105
59 69 53
59 70 120
59 71 92
59 72 217
59 73 105
59 74 91
59 75 84
59 76 100
59 77 64
59 78 43
59 79 43
59 80 22
60 61 229
60 62 30
60 63 201
60 64 195
60 65 121
60 66 222
60 67 75
60 68 206
60 69 204
60 70 189
60 71 74
60 72 165
60 73 134
60 74 75
60 75 161
60 76 200
60 77 3
60 78 147
60 79 190
60 80 96
61 62 236
61 63 106
61 64 26
61 65 184
61 66 72
61 67 81
61 68 114
61 69 149
61 70 121
61 71 52
61 72 162
61 73 6
61 74 43
61 75 35
61 76 168
61 77 67
61 78 114
61 79 182
61 80 217
62 63 150
62 64 218
62 65 43
62 66 157
62 67 146
62 68 78
62 69 151
62 70 111
62 71 203
62 72 33
62 73 24
62 74 137
62 75 180
62 76 44
62 77 81
62 78 217
62 79 135
62 80 60
63 64 229
63 65 184
63 66 239
63 67 48
63 68 32
63 69 216
63 70 213
63 71 152
63 72 10
63 73 63
63 74 101
63 75 237
63 76 158
63 77 195
63 78 145
63 79 21
63 80 31
64 65 171
64 66 209
64 67 238
64 68 194
64 69 29
64 70 233
64 71 55
64 72 18
64 73 53
64 74 40
64 75 237
64 76 200
64 77 126
64 78 144
64 79 137
64 80 218
65 66 165
65 67 201
65 68 178
65 69 6
65 70 105
65 71 8
65 72 205
65 73 109
65 74 88
65 75 143
65 76 137
65 77 33
65 78 127
65 79 156
65 80 171
66 67 18
66 68 25
66 69 31
66 70 56
66 71 196
66 72 196
66 73 109
66 74 93
66 75 83
66 76 232
66 77 21
66 78 163
66 79 47
66 80 111
67 68 143
67 69 88
67 70 63
67 71 12
67 72 232
67 73 137
67 74 139
67 75 181
67 76 45
67 77 188
67 78 127
67 79 58
67 80 92
68 69 137
68 70 82
68 71 222
68 72 113
68 73 167
68 74 188
68 75 16
68 76 136
68 77 136
68 78 12
68 79 174
68 80 234
69 70 135
69 71 111
69 72 122
69 73 108
69 74 95
69 75 119
69 76 130
69 77 184
69 78 84
69 79 64
69 80 63
70 71 201
70 72 117
70 73 16
70 74 227
70 75 37
70 76 40
70 77 84
70 78 28
70 79 50
70 80 222
71 72 155
71 73 101
71 74 158
71 75 151
71 76 67
71 77 168
71 78 89
71 79 86
71 80 135
72 73 24
72 74 24
72 75 188
72 76 234
72 77 51
72 78 181
72 79 154
72 80 118
73 74 14
73 75 130
73 76 149
73 77 96
73 78 18
73 79 72
73 80 37
74 75 180
74 76 208
74 77 111
74 78 116
74 79 110
74 80 25
75 76 38
75 77 71
75 78 177
75 79 56
75 80 78
76 77 215
76 78 216
76 79 180
76 80 33
77 78 117
77 79 13
77 80 145
78 79 42
78 80 102
79 80 235
